Route #1: 31 4 41 23 27 3 42 24
Route #2: 53 48 19 38 13 60 25 5
Route #3: 9 21 39 47 45 46 2
Route #4: 36 16 52 37 22 44 15
Route #5: 7 10 61 43 29 8 51
Route #6: 40 57 6 32 56 14 20
Route #7: 18 30 1 54 11 49 35 12
Route #8: 28 34 55 59 50 17 58 33 26
cost 1530.413330078125